(declare-fun a_ack!72 () (_ BitVec 32))
(declare-fun b_ack!70 () (_ BitVec 32))
(declare-fun c_ack!71 () (_ BitVec 64))
(declare-fun FPCHECK_FMUL_ACCURACY ((_ BitVec 64) (_ BitVec 64)) Bool)
(assert (not (bvslt a_ack!72 #x00000000)))
(assert (not (bvslt b_ack!70 #x00000000)))
(assert (= #x00000000 a_ack!72))
(assert (not (bvslt b_ack!70 #x00000000)))
(assert (not (fp.eq ((_ to_fp 11 53) c_ack!71) ((_ to_fp 11 53) #x0000000000000000))))
(assert (= #x00000000 b_ack!70))
(assert (FPCHECK_FMUL_ACCURACY #xbfe0000000000000 c_ack!71))

(check-sat)
(exit)
